(set-logic QF_NRA)
(set-info :source |Benchmarks generated from hycomp (https://es-static.fbk.eu/tools/hycomp/). BMC instances of non-linear hybrid automata taken from: Alessandro Cimatti, Sergio Mover, Stefano Tonetta, A quantifier-free SMT encoding of non-linear hybrid automata, FMCAD 2012 and Alessandro Cimatti, Sergio Mover, Stefano Tonetta, Quantier-free encoding of invariants for Hybrid Systems, Formal Methods in System Design. This instance solves a BMC problem of depth 2 and uses the quantifier free encoding with lemmas encoding. Contacts: Sergio Mover (mover@fbk.eu), Stefano Tonetta (tonettas@fbk.eu), Alessandro Cimatti (cimatti@fbk.eu).|)
(set-info :smt-lib-version 2.0)
(set-info :category "industrial")
(set-info :status unsat)
;; MathSAT API call trace
;; generated on Mon Mar 19 10:47:36 2012
(declare-fun b.speed_y__AT2 () Real)
(declare-fun b.y__AT0 () Real)
(declare-fun b.counter.0__AT0 () Bool)
(declare-fun b.EVENT.0__AT0 () Bool)
(declare-fun b.counter.3__AT0 () Bool)
(declare-fun b.counter.1__AT0 () Bool)
(declare-fun b.event_is_timed__AT1 () Bool)
(declare-fun b.bool_atom__AT1 () Bool)
(declare-fun b.g__AT0 () Real)
(declare-fun b.speed_y__AT0 () Real)
(declare-fun b.x__AT1 () Real)
(declare-fun b.y__AT1 () Real)
(declare-fun b.counter.2__AT0 () Bool)
(declare-fun b.counter.0__AT1 () Bool)
(declare-fun b.counter.1__AT1 () Bool)
(declare-fun b.event_is_timed__AT2 () Bool)
(declare-fun b.counter.2__AT1 () Bool)
(declare-fun b.event_is_timed__AT0 () Bool)
(declare-fun b.counter.3__AT1 () Bool)
(declare-fun b.bool_atom__AT0 () Bool)
(declare-fun b.x__AT0 () Real)
(declare-fun b.bool_atom__AT2 () Bool)
(declare-fun b.y__AT2 () Real)
(declare-fun b.counter.0__AT2 () Bool)
(declare-fun b.time__AT2 () Real)
(declare-fun b.delta__AT1 () Real)
(declare-fun b.speed_y__AT1 () Real)
(declare-fun b.counter.1__AT2 () Bool)
(declare-fun b.time__AT1 () Real)
(declare-fun b.delta__AT2 () Real)
(declare-fun b.EVENT.0__AT1 () Bool)
(declare-fun b.counter.2__AT2 () Bool)
(declare-fun b.x__AT2 () Real)
(declare-fun b.time__AT0 () Real)
(declare-fun b.EVENT.0__AT2 () Bool)
(declare-fun b.EVENT.1__AT1 () Bool)
(declare-fun b.counter.3__AT2 () Bool)
(declare-fun b.delta__AT0 () Real)
(declare-fun b.EVENT.1__AT2 () Bool)
(declare-fun b.EVENT.1__AT0 () Bool)
(assert (let ((.def_72 (* (- 1.0) b.g__AT0)))
(let ((.def_75 (* (/ 1 2) .def_72)))
(let ((.def_87 (* 2.0 .def_75)))
(let ((.def_131 (* (- 1.0) .def_87)))
(let ((.def_596 (* .def_131 b.delta__AT2)))
(let ((.def_599 (<= .def_596 b.speed_y__AT2)))
(let ((.def_606 (not .def_599)))
(let ((.def_559 (<= 0.0 b.speed_y__AT2)))
(let ((.def_607 (or .def_559 .def_606)))
(let ((.def_597 (<= b.speed_y__AT2 .def_596)))
(let ((.def_573 (<= b.speed_y__AT2 0.0 )))
(let ((.def_574 (not .def_573)))
(let ((.def_605 (or .def_574 .def_597)))
(let ((.def_608 (and .def_605 .def_607)))
(let ((.def_122 (<= b.g__AT0 0.0 )))
(let ((.def_609 (or .def_122 .def_608)))
(let ((.def_601 (not .def_597)))
(let ((.def_602 (or .def_573 .def_601)))
(let ((.def_560 (not .def_559)))
(let ((.def_600 (or .def_560 .def_599)))
(let ((.def_603 (and .def_600 .def_602)))
(let ((.def_127 (<= 0.0 b.g__AT0)))
(let ((.def_604 (or .def_127 .def_603)))
(let ((.def_610 (and .def_604 .def_609)))
(let ((.def_598 (and .def_573 .def_597)))
(let ((.def_611 (and .def_598 .def_610)))
(let ((.def_555 (* .def_87 b.delta__AT2)))
(let ((.def_556 (+ b.speed_y__AT2 .def_555)))
(let ((.def_571 (<= .def_556 0.0 )))
(let ((.def_572 (not .def_571)))
(let ((.def_591 (or .def_572 .def_573)))
(let ((.def_557 (<= 0.0 .def_556)))
(let ((.def_590 (or .def_557 .def_560)))
(let ((.def_592 (and .def_590 .def_591)))
(let ((.def_593 (or .def_127 .def_592)))
(let ((.def_558 (not .def_557)))
(let ((.def_587 (or .def_558 .def_559)))
(let ((.def_586 (or .def_571 .def_574)))
(let ((.def_588 (and .def_586 .def_587)))
(let ((.def_589 (or .def_122 .def_588)))
(let ((.def_594 (and .def_589 .def_593)))
(let ((.def_585 (and .def_557 .def_559)))
(let ((.def_595 (and .def_585 .def_594)))
(let ((.def_612 (or .def_595 .def_611)))
(let ((.def_546 (* b.speed_y__AT2 b.delta__AT2)))
(let ((.def_544 (* b.delta__AT2 b.delta__AT2)))
(let ((.def_545 (* .def_75 .def_544)))
(let ((.def_547 (+ .def_545 .def_546)))
(let ((.def_528 (* (- 1.0) b.x__AT2)))
(let ((.def_529 (* b.x__AT2 .def_528)))
(let ((.def_548 (* (- 1.0) .def_529)))
(let ((.def_551 (+ .def_548 .def_547)))
(let ((.def_552 (+ b.y__AT2 .def_551)))
(let ((.def_565 (<= .def_552 0.0 )))
(let ((.def_579 (not .def_565)))
(let ((.def_563 (<= b.y__AT2 .def_529)))
(let ((.def_580 (or .def_563 .def_579)))
(let ((.def_530 (<= .def_529 b.y__AT2)))
(let ((.def_577 (not .def_530)))
(let ((.def_553 (<= 0.0 .def_552)))
(let ((.def_578 (or .def_553 .def_577)))
(let ((.def_581 (and .def_578 .def_580)))
(let ((.def_575 (or .def_572 .def_574)))
(let ((.def_576 (not .def_575)))
(let ((.def_582 (or .def_576 .def_581)))
(let ((.def_567 (not .def_553)))
(let ((.def_568 (or .def_530 .def_567)))
(let ((.def_564 (not .def_563)))
(let ((.def_566 (or .def_564 .def_565)))
(let ((.def_569 (and .def_566 .def_568)))
(let ((.def_561 (or .def_558 .def_560)))
(let ((.def_562 (not .def_561)))
(let ((.def_570 (or .def_562 .def_569)))
(let ((.def_583 (and .def_570 .def_582)))
(let ((.def_554 (and .def_530 .def_553)))
(let ((.def_584 (and .def_554 .def_583)))
(let ((.def_613 (and .def_584 .def_612)))
(let ((.def_64 (<= b.g__AT0 10.0 )))
(let ((.def_63 (<= 8.0 b.g__AT0)))
(let ((.def_65 (and .def_63 .def_64)))
(let ((.def_614 (and .def_65 .def_613)))
(let ((.def_219 (not b.counter.0__AT1)))
(let ((.def_209 (not b.counter.1__AT1)))
(let ((.def_535 (and .def_209 .def_219)))
(let ((.def_539 (or b.counter.3__AT1 .def_535)))
(let ((.def_536 (or b.counter.2__AT1 .def_535)))
(let ((.def_214 (not b.counter.2__AT1)))
(let ((.def_534 (or .def_209 .def_214)))
(let ((.def_537 (and .def_534 .def_536)))
(let ((.def_228 (not b.counter.3__AT1)))
(let ((.def_538 (or .def_228 .def_537)))
(let ((.def_540 (and .def_538 .def_539)))
(let ((.def_531 (and .def_65 .def_530)))
(let ((.def_525 (not b.EVENT.0__AT2)))
(let ((.def_523 (not b.EVENT.1__AT2)))
(let ((.def_526 (or .def_523 .def_525)))
(let ((.def_9 (not b.counter.0__AT2)))
(let ((.def_6 (not b.counter.1__AT2)))
(let ((.def_516 (or .def_6 .def_9)))
(let ((.def_520 (or b.counter.3__AT2 .def_516)))
(let ((.def_517 (or b.counter.2__AT2 .def_516)))
(let ((.def_4 (not b.counter.2__AT2)))
(let ((.def_515 (or .def_4 .def_9)))
(let ((.def_518 (and .def_515 .def_517)))
(let ((.def_14 (not b.counter.3__AT2)))
(let ((.def_519 (or .def_14 .def_518)))
(let ((.def_521 (and .def_519 .def_520)))
(let ((.def_527 (and .def_521 .def_526)))
(let ((.def_532 (and .def_527 .def_531)))
(let ((.def_510 (<= 0.0 b.delta__AT1)))
(let ((.def_298 (not b.EVENT.0__AT1)))
(let ((.def_296 (not b.EVENT.1__AT1)))
(let ((.def_388 (and .def_296 .def_298)))
(let ((.def_390 (not .def_388)))
(let ((.def_511 (or .def_390 .def_510)))
(let ((.def_512 (or b.EVENT.1__AT1 .def_511)))
(let ((.def_425 (= b.bool_atom__AT1 b.bool_atom__AT2)))
(let ((.def_421 (= b.counter.0__AT2 b.counter.0__AT1)))
(let ((.def_419 (= b.counter.1__AT2 b.counter.1__AT1)))
(let ((.def_417 (= b.counter.2__AT2 b.counter.2__AT1)))
(let ((.def_416 (= b.counter.3__AT2 b.counter.3__AT1)))
(let ((.def_418 (and .def_416 .def_417)))
(let ((.def_420 (and .def_418 .def_419)))
(let ((.def_422 (and .def_420 .def_421)))
(let ((.def_506 (and .def_422 .def_425)))
(let ((.def_507 (or .def_390 .def_506)))
(let ((.def_508 (or b.EVENT.1__AT1 .def_507)))
(let ((.def_495 (* .def_72 b.delta__AT1)))
(let ((.def_496 (* (- 1.0) b.speed_y__AT2)))
(let ((.def_499 (+ .def_496 .def_495)))
(let ((.def_500 (+ b.speed_y__AT1 .def_499)))
(let ((.def_501 (= .def_500 0.0 )))
(let ((.def_486 (* (- 1.0) b.y__AT2)))
(let ((.def_318 (* b.speed_y__AT1 b.delta__AT1)))
(let ((.def_490 (+ .def_318 .def_486)))
(let ((.def_316 (* b.delta__AT1 b.delta__AT1)))
(let ((.def_317 (* .def_75 .def_316)))
(let ((.def_491 (+ .def_317 .def_490)))
(let ((.def_492 (+ b.y__AT1 .def_491)))
(let ((.def_493 (= .def_492 0.0 )))
(let ((.def_408 (= b.x__AT1 b.x__AT2)))
(let ((.def_494 (and .def_408 .def_493)))
(let ((.def_502 (and .def_494 .def_501)))
(let ((.def_503 (or .def_390 .def_502)))
(let ((.def_411 (= b.y__AT1 b.y__AT2)))
(let ((.def_481 (and .def_408 .def_411)))
(let ((.def_414 (= b.speed_y__AT1 b.speed_y__AT2)))
(let ((.def_482 (and .def_414 .def_481)))
(let ((.def_478 (= b.delta__AT1 0.0 )))
(let ((.def_479 (and .def_388 .def_478)))
(let ((.def_480 (not .def_479)))
(let ((.def_483 (or .def_480 .def_482)))
(let ((.def_484 (or b.EVENT.1__AT1 .def_483)))
(let ((.def_471 (and .def_414 .def_422)))
(let ((.def_472 (or b.bool_atom__AT1 .def_471)))
(let ((.def_447 (or .def_9 b.counter.0__AT1)))
(let ((.def_446 (or b.counter.0__AT2 .def_219)))
(let ((.def_448 (and .def_446 .def_447)))
(let ((.def_449 (and .def_6 .def_448)))
(let ((.def_450 (or b.counter.1__AT1 .def_449)))
(let ((.def_445 (or b.counter.1__AT2 .def_209)))
(let ((.def_451 (and .def_445 .def_450)))
(let ((.def_462 (and .def_4 .def_451)))
(let ((.def_463 (or b.counter.2__AT1 .def_462)))
(let ((.def_457 (and .def_6 .def_219)))
(let ((.def_458 (or b.counter.1__AT1 .def_457)))
(let ((.def_459 (and .def_445 .def_458)))
(let ((.def_460 (and b.counter.2__AT2 .def_459)))
(let ((.def_461 (or .def_214 .def_460)))
(let ((.def_464 (and .def_461 .def_463)))
(let ((.def_465 (and b.counter.3__AT2 .def_464)))
(let ((.def_466 (or b.counter.3__AT1 .def_465)))
(let ((.def_452 (and b.counter.2__AT2 .def_451)))
(let ((.def_453 (or b.counter.2__AT1 .def_452)))
(let ((.def_441 (or b.counter.1__AT2 b.counter.1__AT1)))
(let ((.def_439 (and .def_6 b.counter.0__AT2)))
(let ((.def_440 (or .def_209 .def_439)))
(let ((.def_442 (and .def_440 .def_441)))
(let ((.def_443 (and .def_4 .def_442)))
(let ((.def_444 (or .def_214 .def_443)))
(let ((.def_454 (and .def_444 .def_453)))
(let ((.def_455 (and .def_14 .def_454)))
(let ((.def_456 (or .def_228 .def_455)))
(let ((.def_467 (and .def_456 .def_466)))
(let ((.def_436 (* b.speed_y__AT2 b.speed_y__AT2)))
(let ((.def_205 (* b.speed_y__AT1 b.speed_y__AT1)))
(let ((.def_437 (= .def_205 .def_436)))
(let ((.def_434 (+ b.speed_y__AT1 b.speed_y__AT2)))
(let ((.def_435 (= .def_434 0.0 )))
(let ((.def_438 (and .def_435 .def_437)))
(let ((.def_468 (and .def_438 .def_467)))
(let ((.def_433 (not b.bool_atom__AT1)))
(let ((.def_469 (or .def_433 .def_468)))
(let ((.def_301 (* (- 1.0) b.x__AT1)))
(let ((.def_302 (* b.x__AT1 .def_301)))
(let ((.def_430 (= b.y__AT1 .def_302)))
(let ((.def_331 (<= 0.0 b.speed_y__AT1)))
(let ((.def_332 (not .def_331)))
(let ((.def_431 (and .def_332 .def_430)))
(let ((.def_432 (= b.bool_atom__AT1 .def_431)))
(let ((.def_470 (and .def_432 .def_469)))
(let ((.def_473 (and .def_470 .def_472)))
(let ((.def_474 (and .def_408 .def_473)))
(let ((.def_475 (and .def_411 .def_474)))
(let ((.def_476 (or .def_388 .def_475)))
(let ((.def_477 (or b.EVENT.1__AT1 .def_476)))
(let ((.def_485 (and .def_477 .def_484)))
(let ((.def_504 (and .def_485 .def_503)))
(let ((.def_395 (= b.time__AT1 b.time__AT2)))
(let ((.def_409 (and .def_395 .def_408)))
(let ((.def_412 (and .def_409 .def_411)))
(let ((.def_415 (and .def_412 .def_414)))
(let ((.def_423 (and .def_415 .def_422)))
(let ((.def_426 (and .def_423 .def_425)))
(let ((.def_427 (or .def_296 .def_426)))
(let ((.def_398 (* (- 1.0) b.time__AT2)))
(let ((.def_401 (+ b.delta__AT1 .def_398)))
(let ((.def_402 (+ b.time__AT1 .def_401)))
(let ((.def_403 (= .def_402 0.0 )))
(let ((.def_404 (or .def_390 .def_403)))
(let ((.def_405 (or b.EVENT.1__AT1 .def_404)))
(let ((.def_396 (or .def_388 .def_395)))
(let ((.def_397 (or b.EVENT.1__AT1 .def_396)))
(let ((.def_406 (and .def_397 .def_405)))
(let ((.def_428 (and .def_406 .def_427)))
(let ((.def_392 (= .def_390 b.event_is_timed__AT2)))
(let ((.def_389 (= b.event_is_timed__AT1 .def_388)))
(let ((.def_393 (and .def_389 .def_392)))
(let ((.def_429 (and .def_393 .def_428)))
(let ((.def_505 (and .def_429 .def_504)))
(let ((.def_509 (and .def_505 .def_508)))
(let ((.def_513 (and .def_509 .def_512)))
(let ((.def_514 (and .def_296 .def_513)))
(let ((.def_533 (and .def_514 .def_532)))
(let ((.def_541 (and .def_533 .def_540)))
(let ((.def_368 (* .def_131 b.delta__AT1)))
(let ((.def_371 (<= .def_368 b.speed_y__AT1)))
(let ((.def_378 (not .def_371)))
(let ((.def_379 (or .def_331 .def_378)))
(let ((.def_369 (<= b.speed_y__AT1 .def_368)))
(let ((.def_345 (<= b.speed_y__AT1 0.0 )))
(let ((.def_346 (not .def_345)))
(let ((.def_377 (or .def_346 .def_369)))
(let ((.def_380 (and .def_377 .def_379)))
(let ((.def_381 (or .def_122 .def_380)))
(let ((.def_373 (not .def_369)))
(let ((.def_374 (or .def_345 .def_373)))
(let ((.def_372 (or .def_332 .def_371)))
(let ((.def_375 (and .def_372 .def_374)))
(let ((.def_376 (or .def_127 .def_375)))
(let ((.def_382 (and .def_376 .def_381)))
(let ((.def_370 (and .def_345 .def_369)))
(let ((.def_383 (and .def_370 .def_382)))
(let ((.def_327 (* .def_87 b.delta__AT1)))
(let ((.def_328 (+ b.speed_y__AT1 .def_327)))
(let ((.def_343 (<= .def_328 0.0 )))
(let ((.def_344 (not .def_343)))
(let ((.def_363 (or .def_344 .def_345)))
(let ((.def_329 (<= 0.0 .def_328)))
(let ((.def_362 (or .def_329 .def_332)))
(let ((.def_364 (and .def_362 .def_363)))
(let ((.def_365 (or .def_127 .def_364)))
(let ((.def_330 (not .def_329)))
(let ((.def_359 (or .def_330 .def_331)))
(let ((.def_358 (or .def_343 .def_346)))
(let ((.def_360 (and .def_358 .def_359)))
(let ((.def_361 (or .def_122 .def_360)))
(let ((.def_366 (and .def_361 .def_365)))
(let ((.def_357 (and .def_329 .def_331)))
(let ((.def_367 (and .def_357 .def_366)))
(let ((.def_384 (or .def_367 .def_383)))
(let ((.def_319 (+ .def_317 .def_318)))
(let ((.def_320 (* (- 1.0) .def_302)))
(let ((.def_323 (+ .def_320 .def_319)))
(let ((.def_324 (+ b.y__AT1 .def_323)))
(let ((.def_337 (<= .def_324 0.0 )))
(let ((.def_351 (not .def_337)))
(let ((.def_335 (<= b.y__AT1 .def_302)))
(let ((.def_352 (or .def_335 .def_351)))
(let ((.def_303 (<= .def_302 b.y__AT1)))
(let ((.def_349 (not .def_303)))
(let ((.def_325 (<= 0.0 .def_324)))
(let ((.def_350 (or .def_325 .def_349)))
(let ((.def_353 (and .def_350 .def_352)))
(let ((.def_347 (or .def_344 .def_346)))
(let ((.def_348 (not .def_347)))
(let ((.def_354 (or .def_348 .def_353)))
(let ((.def_339 (not .def_325)))
(let ((.def_340 (or .def_303 .def_339)))
(let ((.def_336 (not .def_335)))
(let ((.def_338 (or .def_336 .def_337)))
(let ((.def_341 (and .def_338 .def_340)))
(let ((.def_333 (or .def_330 .def_332)))
(let ((.def_334 (not .def_333)))
(let ((.def_342 (or .def_334 .def_341)))
(let ((.def_355 (and .def_342 .def_354)))
(let ((.def_326 (and .def_303 .def_325)))
(let ((.def_356 (and .def_326 .def_355)))
(let ((.def_385 (and .def_356 .def_384)))
(let ((.def_386 (and .def_65 .def_385)))
(let ((.def_34 (not b.counter.0__AT0)))
(let ((.def_32 (not b.counter.1__AT0)))
(let ((.def_35 (and .def_32 .def_34)))
(let ((.def_311 (or .def_35 b.counter.3__AT0)))
(let ((.def_308 (or .def_35 b.counter.2__AT0)))
(let ((.def_37 (not b.counter.2__AT0)))
(let ((.def_307 (or .def_32 .def_37)))
(let ((.def_309 (and .def_307 .def_308)))
(let ((.def_40 (not b.counter.3__AT0)))
(let ((.def_310 (or .def_40 .def_309)))
(let ((.def_312 (and .def_310 .def_311)))
(let ((.def_304 (and .def_65 .def_303)))
(let ((.def_299 (or .def_296 .def_298)))
(let ((.def_289 (or .def_209 .def_219)))
(let ((.def_293 (or b.counter.3__AT1 .def_289)))
(let ((.def_290 (or b.counter.2__AT1 .def_289)))
(let ((.def_288 (or .def_214 .def_219)))
(let ((.def_291 (and .def_288 .def_290)))
(let ((.def_292 (or .def_228 .def_291)))
(let ((.def_294 (and .def_292 .def_293)))
(let ((.def_300 (and .def_294 .def_299)))
(let ((.def_305 (and .def_300 .def_304)))
(let ((.def_283 (<= 0.0 b.delta__AT0)))
(let ((.def_53 (not b.EVENT.0__AT0)))
(let ((.def_51 (not b.EVENT.1__AT0)))
(let ((.def_152 (and .def_51 .def_53)))
(let ((.def_154 (not .def_152)))
(let ((.def_284 (or .def_154 .def_283)))
(let ((.def_285 (or b.EVENT.1__AT0 .def_284)))
(let ((.def_194 (= b.bool_atom__AT0 b.bool_atom__AT1)))
(let ((.def_189 (= b.counter.0__AT0 b.counter.0__AT1)))
(let ((.def_186 (= b.counter.1__AT0 b.counter.1__AT1)))
(let ((.def_183 (= b.counter.2__AT0 b.counter.2__AT1)))
(let ((.def_181 (= b.counter.3__AT0 b.counter.3__AT1)))
(let ((.def_184 (and .def_181 .def_183)))
(let ((.def_187 (and .def_184 .def_186)))
(let ((.def_190 (and .def_187 .def_189)))
(let ((.def_279 (and .def_190 .def_194)))
(let ((.def_280 (or .def_154 .def_279)))
(let ((.def_281 (or b.EVENT.1__AT0 .def_280)))
(let ((.def_268 (* b.delta__AT0 .def_72)))
(let ((.def_269 (* (- 1.0) b.speed_y__AT1)))
(let ((.def_272 (+ .def_269 .def_268)))
(let ((.def_273 (+ b.speed_y__AT0 .def_272)))
(let ((.def_274 (= .def_273 0.0 )))
(let ((.def_260 (* (- 1.0) b.y__AT1)))
(let ((.def_78 (* b.delta__AT0 b.speed_y__AT0)))
(let ((.def_263 (+ .def_78 .def_260)))
(let ((.def_71 (* b.delta__AT0 b.delta__AT0)))
(let ((.def_76 (* .def_71 .def_75)))
(let ((.def_264 (+ .def_76 .def_263)))
(let ((.def_265 (+ b.y__AT0 .def_264)))
(let ((.def_266 (= .def_265 0.0 )))
(let ((.def_172 (= b.x__AT0 b.x__AT1)))
(let ((.def_267 (and .def_172 .def_266)))
(let ((.def_275 (and .def_267 .def_274)))
(let ((.def_276 (or .def_154 .def_275)))
(let ((.def_175 (= b.y__AT0 b.y__AT1)))
(let ((.def_255 (and .def_172 .def_175)))
(let ((.def_178 (= b.speed_y__AT0 b.speed_y__AT1)))
(let ((.def_256 (and .def_178 .def_255)))
(let ((.def_252 (= b.delta__AT0 0.0 )))
(let ((.def_253 (and .def_152 .def_252)))
(let ((.def_254 (not .def_253)))
(let ((.def_257 (or .def_254 .def_256)))
(let ((.def_258 (or b.EVENT.1__AT0 .def_257)))
(let ((.def_245 (and .def_178 .def_190)))
(let ((.def_246 (or b.bool_atom__AT0 .def_245)))
(let ((.def_220 (or b.counter.0__AT0 .def_219)))
(let ((.def_218 (or .def_34 b.counter.0__AT1)))
(let ((.def_221 (and .def_218 .def_220)))
(let ((.def_222 (and .def_209 .def_221)))
(let ((.def_223 (or b.counter.1__AT0 .def_222)))
(let ((.def_217 (or .def_32 b.counter.1__AT1)))
(let ((.def_224 (and .def_217 .def_223)))
(let ((.def_236 (and .def_214 .def_224)))
(let ((.def_237 (or b.counter.2__AT0 .def_236)))
(let ((.def_231 (and .def_34 .def_209)))
(let ((.def_232 (or b.counter.1__AT0 .def_231)))
(let ((.def_233 (and .def_217 .def_232)))
(let ((.def_234 (and b.counter.2__AT1 .def_233)))
(let ((.def_235 (or .def_37 .def_234)))
(let ((.def_238 (and .def_235 .def_237)))
(let ((.def_239 (and b.counter.3__AT1 .def_238)))
(let ((.def_240 (or b.counter.3__AT0 .def_239)))
(let ((.def_225 (and b.counter.2__AT1 .def_224)))
(let ((.def_226 (or b.counter.2__AT0 .def_225)))
(let ((.def_212 (or b.counter.1__AT0 b.counter.1__AT1)))
(let ((.def_210 (and b.counter.0__AT1 .def_209)))
(let ((.def_211 (or .def_32 .def_210)))
(let ((.def_213 (and .def_211 .def_212)))
(let ((.def_215 (and .def_213 .def_214)))
(let ((.def_216 (or .def_37 .def_215)))
(let ((.def_227 (and .def_216 .def_226)))
(let ((.def_229 (and .def_227 .def_228)))
(let ((.def_230 (or .def_40 .def_229)))
(let ((.def_241 (and .def_230 .def_240)))
(let ((.def_206 (* b.speed_y__AT0 b.speed_y__AT0)))
(let ((.def_207 (= .def_205 .def_206)))
(let ((.def_203 (+ b.speed_y__AT0 b.speed_y__AT1)))
(let ((.def_204 (= .def_203 0.0 )))
(let ((.def_208 (and .def_204 .def_207)))
(let ((.def_242 (and .def_208 .def_241)))
(let ((.def_202 (not b.bool_atom__AT0)))
(let ((.def_243 (or .def_202 .def_242)))
(let ((.def_58 (* (- 1.0) b.x__AT0)))
(let ((.def_59 (* b.x__AT0 .def_58)))
(let ((.def_199 (= b.y__AT0 .def_59)))
(let ((.def_92 (<= 0.0 b.speed_y__AT0)))
(let ((.def_93 (not .def_92)))
(let ((.def_200 (and .def_93 .def_199)))
(let ((.def_201 (= b.bool_atom__AT0 .def_200)))
(let ((.def_244 (and .def_201 .def_243)))
(let ((.def_247 (and .def_244 .def_246)))
(let ((.def_248 (and .def_172 .def_247)))
(let ((.def_249 (and .def_175 .def_248)))
(let ((.def_250 (or .def_152 .def_249)))
(let ((.def_251 (or b.EVENT.1__AT0 .def_250)))
(let ((.def_259 (and .def_251 .def_258)))
(let ((.def_277 (and .def_259 .def_276)))
(let ((.def_159 (= b.time__AT0 b.time__AT1)))
(let ((.def_173 (and .def_159 .def_172)))
(let ((.def_176 (and .def_173 .def_175)))
(let ((.def_179 (and .def_176 .def_178)))
(let ((.def_191 (and .def_179 .def_190)))
(let ((.def_195 (and .def_191 .def_194)))
(let ((.def_196 (or .def_51 .def_195)))
(let ((.def_162 (* (- 1.0) b.time__AT1)))
(let ((.def_165 (+ b.delta__AT0 .def_162)))
(let ((.def_166 (+ b.time__AT0 .def_165)))
(let ((.def_167 (= .def_166 0.0 )))
(let ((.def_168 (or .def_154 .def_167)))
(let ((.def_169 (or b.EVENT.1__AT0 .def_168)))
(let ((.def_160 (or .def_152 .def_159)))
(let ((.def_161 (or b.EVENT.1__AT0 .def_160)))
(let ((.def_170 (and .def_161 .def_169)))
(let ((.def_197 (and .def_170 .def_196)))
(let ((.def_156 (= .def_154 b.event_is_timed__AT1)))
(let ((.def_153 (= b.event_is_timed__AT0 .def_152)))
(let ((.def_157 (and .def_153 .def_156)))
(let ((.def_198 (and .def_157 .def_197)))
(let ((.def_278 (and .def_198 .def_277)))
(let ((.def_282 (and .def_278 .def_281)))
(let ((.def_286 (and .def_282 .def_285)))
(let ((.def_287 (and .def_51 .def_286)))
(let ((.def_306 (and .def_287 .def_305)))
(let ((.def_313 (and .def_306 .def_312)))
(let ((.def_132 (* b.delta__AT0 .def_131)))
(let ((.def_135 (<= .def_132 b.speed_y__AT0)))
(let ((.def_142 (not .def_135)))
(let ((.def_143 (or .def_92 .def_142)))
(let ((.def_133 (<= b.speed_y__AT0 .def_132)))
(let ((.def_106 (<= b.speed_y__AT0 0.0 )))
(let ((.def_107 (not .def_106)))
(let ((.def_141 (or .def_107 .def_133)))
(let ((.def_144 (and .def_141 .def_143)))
(let ((.def_145 (or .def_122 .def_144)))
(let ((.def_137 (not .def_133)))
(let ((.def_138 (or .def_106 .def_137)))
(let ((.def_136 (or .def_93 .def_135)))
(let ((.def_139 (and .def_136 .def_138)))
(let ((.def_140 (or .def_127 .def_139)))
(let ((.def_146 (and .def_140 .def_145)))
(let ((.def_134 (and .def_106 .def_133)))
(let ((.def_147 (and .def_134 .def_146)))
(let ((.def_88 (* b.delta__AT0 .def_87)))
(let ((.def_89 (+ b.speed_y__AT0 .def_88)))
(let ((.def_104 (<= .def_89 0.0 )))
(let ((.def_105 (not .def_104)))
(let ((.def_125 (or .def_105 .def_106)))
(let ((.def_90 (<= 0.0 .def_89)))
(let ((.def_124 (or .def_90 .def_93)))
(let ((.def_126 (and .def_124 .def_125)))
(let ((.def_128 (or .def_126 .def_127)))
(let ((.def_91 (not .def_90)))
(let ((.def_120 (or .def_91 .def_92)))
(let ((.def_119 (or .def_104 .def_107)))
(let ((.def_121 (and .def_119 .def_120)))
(let ((.def_123 (or .def_121 .def_122)))
(let ((.def_129 (and .def_123 .def_128)))
(let ((.def_118 (and .def_90 .def_92)))
(let ((.def_130 (and .def_118 .def_129)))
(let ((.def_148 (or .def_130 .def_147)))
(let ((.def_79 (+ .def_76 .def_78)))
(let ((.def_80 (* (- 1.0) .def_59)))
(let ((.def_83 (+ .def_80 .def_79)))
(let ((.def_84 (+ b.y__AT0 .def_83)))
(let ((.def_98 (<= .def_84 0.0 )))
(let ((.def_112 (not .def_98)))
(let ((.def_96 (<= b.y__AT0 .def_59)))
(let ((.def_113 (or .def_96 .def_112)))
(let ((.def_60 (<= .def_59 b.y__AT0)))
(let ((.def_110 (not .def_60)))
(let ((.def_85 (<= 0.0 .def_84)))
(let ((.def_111 (or .def_85 .def_110)))
(let ((.def_114 (and .def_111 .def_113)))
(let ((.def_108 (or .def_105 .def_107)))
(let ((.def_109 (not .def_108)))
(let ((.def_115 (or .def_109 .def_114)))
(let ((.def_100 (not .def_85)))
(let ((.def_101 (or .def_60 .def_100)))
(let ((.def_97 (not .def_96)))
(let ((.def_99 (or .def_97 .def_98)))
(let ((.def_102 (and .def_99 .def_101)))
(let ((.def_94 (or .def_91 .def_93)))
(let ((.def_95 (not .def_94)))
(let ((.def_103 (or .def_95 .def_102)))
(let ((.def_116 (and .def_103 .def_115)))
(let ((.def_86 (and .def_60 .def_85)))
(let ((.def_117 (and .def_86 .def_116)))
(let ((.def_149 (and .def_117 .def_148)))
(let ((.def_150 (and .def_65 .def_149)))
(let ((.def_66 (and .def_60 .def_65)))
(let ((.def_54 (or .def_51 .def_53)))
(let ((.def_44 (or .def_32 .def_34)))
(let ((.def_48 (or b.counter.3__AT0 .def_44)))
(let ((.def_45 (or b.counter.2__AT0 .def_44)))
(let ((.def_43 (or .def_34 .def_37)))
(let ((.def_46 (and .def_43 .def_45)))
(let ((.def_47 (or .def_40 .def_46)))
(let ((.def_49 (and .def_47 .def_48)))
(let ((.def_55 (and .def_49 .def_54)))
(let ((.def_67 (and .def_55 .def_66)))
(let ((.def_38 (and .def_35 .def_37)))
(let ((.def_41 (and .def_38 .def_40)))
(let ((.def_29 (= b.y__AT0 10.0 )))
(let ((.def_25 (= b.x__AT0 0.0 )))
(let ((.def_21 (= b.time__AT0 0.0 )))
(let ((.def_23 (and .def_21 b.event_is_timed__AT0)))
(let ((.def_26 (and .def_23 .def_25)))
(let ((.def_30 (and .def_26 .def_29)))
(let ((.def_42 (and .def_30 .def_41)))
(let ((.def_68 (and .def_42 .def_67)))
(let ((.def_10 (and .def_6 .def_9)))
(let ((.def_16 (or .def_10 b.counter.3__AT2)))
(let ((.def_11 (or b.counter.2__AT2 .def_10)))
(let ((.def_7 (or .def_4 .def_6)))
(let ((.def_12 (and .def_7 .def_11)))
(let ((.def_15 (or .def_12 .def_14)))
(let ((.def_17 (and .def_15 .def_16)))
(let ((.def_18 (not .def_17)))
(let ((.def_69 (and .def_18 .def_68)))
(let ((.def_151 (and .def_69 .def_150)))
(let ((.def_314 (and .def_151 .def_313)))
(let ((.def_387 (and .def_314 .def_386)))
(let ((.def_542 (and .def_387 .def_541)))
(let ((.def_615 (and .def_542 .def_614)))
.def_615))))))))))))))))))))))))))))))))))))))))))))))))))))))))))))))))))))))))))))))))))))))))))))))))))))))))))))))))))))))))))))))))))))))))))))))))))))))))))))))))))))))))))))))))))))))))))))))))))))))))))))))))))))))))))))))))))))))))))))))))))))))))))))))))))))))))))))))))))))))))))))))))))))))))))))))))))))))))))))))))))))))))))))))))))))))))))))))))))))))))))))))))))))))))))))))))))))))))))))))))))))))))))))))))))))))))))))))))))))))))))))))))))))))))))))))))))))))))))))))))))))))))))))))))))))))))))))))))))))))))))))))))))))))))))))))))))))
(check-sat)
(exit)
